62
20
0 21 22 23 24 29 33 36 37 39 42 43 44 45 46 48 54 55 56 57 58 61
1 21 22 26 28 29 30 32 39 40 43 44 45 47 48 49 50 54 55 56 57 58 59
2 21 24 25 26 31 34 36 37 38 39 41 43 45 46 48 49 50 52 53 54 55 56
3 21 22 23 24 25 26 28 29 30 32 35 36 37 38 39 43 44 46 48 51 53 54 55 56 57 58 60 61
4 21 22 24 26 29 30 32 36 37 38 39 41 43 44 48 49 50 53 54 55 56 57 59 61
5 20 21 24 26 29 32 37 38 39 43 44 45 46 48 49 50 51 52 53 54 57 58
6 21 25 26 27 33 34 36 38 39 42 43 49 50 53 55 57
7 21 22 24 26 27 32 36 37 38 40 42 43 45 50 51 55 57 60 61
8 21 24 26 29 30 32 33 36 40 41 42 43 44 47 48 49 50 55 57 58 59
9 22 31 32 33 36 37 39 42 43 45 46 49 50 53 54 55 57 58 60
10 21 24 28 29 36 37 38 39 45 46 49 57 58 59 60
11 20 21 22 25 26 29 32 37 39 42 44 45 46 48 51 54 56 59 60
12 20 22 25 27 28 29 34 38 42 48 51 52 55 56 57 58 61
13 26 28 33 39 50 51 53 54 55
14 20 21 25 38 58
15 20 22 30 38 42 43 44 48 54
16 23 30 42 52 56 61
17 22 38 50 55
18 33 40 43
19 45 60
